0000000000000000
0000000000000000
0000111111111100
0000010000011000
0000000000001000
0000000000011100
0000000000110000
0000000000010000
0000000000011000
0000000000110000
0000000000110000
0000000001110000
0000000011110000
0011111111111000
0000000000000000
0000000000000000
